12626
8285
29052
4271
27623
17103
22594
32163
941
30011
9748
28039
28035
24855
19752
13878
16274
3725
21514
6317
14041
32586
27429
19854
17932
28693
12529
16306
30144
14939
24576
22172
16372
12623
22848
5660
16557
20496
20982
30269
9815
17035
19781
28445
6224
22861
23711
25915
13588
26487
29093
12895
32529
21772
8614
18890
4606
22709
23879
3307
15727
21708
17550
18328
25103
26867
11690
12562
9127
13281
3155
16812
15834
13142
164
4005
6643
13393
27457
7066
19945
694
5824
7006
15652
7881
19608
12239
16647
24653
29464
14325
14400
9087
33
9767
25083
18064
9210
4297
